letting numberCities be 21
letting distances be function (
(1,1) --> 0,
(1,2) --> 510,
(1,3) --> 635,
(1,4) --> 91,
(1,5) --> 385,
(1,6) --> 155,
(1,7) --> 110,
(1,8) --> 130,
(1,9) --> 490,
(1,10) --> 370,
(1,11) --> 155,
(1,12) --> 68,
(1,13) --> 610,
(1,14) --> 655,
(1,15) --> 480,
(1,16) --> 265,
(1,17) --> 255,
(1,18) --> 450,
(1,19) --> 170,
(1,20) --> 240,
(1,21) --> 380,
(2,1) --> 510,
(2,2) --> 0,
(2,3) --> 355,
(2,4) --> 415,
(2,5) --> 585,
(2,6) --> 475,
(2,7) --> 480,
(2,8) --> 500,
(2,9) --> 605,
(2,10) --> 320,
(2,11) --> 380,
(2,12) --> 440,
(2,13) --> 360,
(2,14) --> 235,
(2,15) --> 81,
(2,16) --> 480,
(2,17) --> 440,
(2,18) --> 270,
(2,19) --> 445,
(2,20) --> 290,
(2,21) --> 140,
(3,1) --> 635,
(3,2) --> 355,
(3,3) --> 0,
(3,4) --> 605,
(3,5) --> 390,
(3,6) --> 495,
(3,7) --> 570,
(3,8) --> 540,
(3,9) --> 295,
(3,10) --> 700,
(3,11) --> 640,
(3,12) --> 575,
(3,13) --> 705,
(3,14) --> 585,
(3,15) --> 435,
(3,16) --> 420,
(3,17) --> 755,
(3,18) --> 625,
(3,19) --> 750,
(3,20) --> 590,
(3,21) --> 495,
(4,1) --> 91,
(4,2) --> 415,
(4,3) --> 605,
(4,4) --> 0,
(4,5) --> 350,
(4,6) --> 120,
(4,7) --> 78,
(4,8) --> 97,
(4,9) --> 460,
(4,10) --> 280,
(4,11) --> 63,
(4,12) --> 27,
(4,13) --> 520,
(4,14) --> 555,
(4,15) --> 380,
(4,16) --> 235,
(4,17) --> 235,
(4,18) --> 345,
(4,19) --> 160,
(4,20) --> 140,
(4,21) --> 280,
(5,1) --> 385,
(5,2) --> 585,
(5,3) --> 390,
(5,4) --> 350,
(5,5) --> 0,
(5,6) --> 240,
(5,7) --> 320,
(5,8) --> 285,
(5,9) --> 120,
(5,10) --> 590,
(5,11) --> 430,
(5,12) --> 320,
(5,13) --> 835,
(5,14) --> 750,
(5,15) --> 575,
(5,16) --> 125,
(5,17) --> 650,
(5,18) --> 660,
(5,19) --> 495,
(5,20) --> 480,
(5,21) --> 480,
(6,1) --> 155,
(6,2) --> 475,
(6,3) --> 495,
(6,4) --> 120,
(6,5) --> 240,
(6,6) --> 0,
(6,7) --> 96,
(6,8) --> 36,
(6,9) --> 350,
(6,10) --> 365,
(6,11) --> 200,
(6,12) --> 91,
(6,13) --> 605,
(6,14) --> 615,
(6,15) --> 440,
(6,16) --> 125,
(6,17) --> 370,
(6,18) --> 430,
(6,19) --> 265,
(6,20) --> 255,
(6,21) --> 340,
(7,1) --> 110,
(7,2) --> 480,
(7,3) --> 570,
(7,4) --> 78,
(7,5) --> 320,
(7,6) --> 96,
(7,7) --> 0,
(7,8) --> 29,
(7,9) --> 425,
(7,10) --> 350,
(7,11) --> 160,
(7,12) --> 48,
(7,13) --> 590,
(7,14) --> 625,
(7,15) --> 455,
(7,16) --> 200,
(7,17) --> 320,
(7,18) --> 420,
(7,19) --> 220,
(7,20) --> 205,
(7,21) --> 350,
(8,1) --> 130,
(8,2) --> 500,
(8,3) --> 540,
(8,4) --> 97,
(8,5) --> 285,
(8,6) --> 36,
(8,7) --> 29,
(8,8) --> 0,
(8,9) --> 390,
(8,10) --> 370,
(8,11) --> 175,
(8,12) --> 67,
(8,13) --> 610,
(8,14) --> 645,
(8,15) --> 465,
(8,16) --> 165,
(8,17) --> 350,
(8,18) --> 440,
(8,19) --> 240,
(8,20) --> 220,
(8,21) --> 370,
(9,1) --> 490,
(9,2) --> 605,
(9,3) --> 295,
(9,4) --> 460,
(9,5) --> 120,
(9,6) --> 350,
(9,7) --> 425,
(9,8) --> 390,
(9,9) --> 0,
(9,10) --> 625,
(9,11) --> 535,
(9,12) --> 430,
(9,13) --> 865,
(9,14) --> 775,
(9,15) --> 600,
(9,16) --> 230,
(9,17) --> 680,
(9,18) --> 690,
(9,19) --> 600,
(9,20) --> 515,
(9,21) --> 505,
(10,1) --> 370,
(10,2) --> 320,
(10,3) --> 700,
(10,4) --> 280,
(10,5) --> 590,
(10,6) --> 365,
(10,7) --> 350,
(10,8) --> 370,
(10,9) --> 625,
(10,10) --> 0,
(10,11) --> 240,
(10,12) --> 300,
(10,13) --> 250,
(10,14) --> 285,
(10,15) --> 245,
(10,16) --> 475,
(10,17) --> 150,
(10,18) --> 77,
(10,19) --> 235,
(10,20) --> 150,
(10,21) --> 185,
(11,1) --> 155,
(11,2) --> 380,
(11,3) --> 640,
(11,4) --> 63,
(11,5) --> 430,
(11,6) --> 200,
(11,7) --> 160,
(11,8) --> 175,
(11,9) --> 535,
(11,10) --> 240,
(11,11) --> 0,
(11,12) --> 90,
(11,13) --> 480,
(11,14) --> 515,
(11,15) --> 345,
(11,16) --> 310,
(11,17) --> 175,
(11,18) --> 310,
(11,19) --> 125,
(11,20) --> 100,
(11,21) --> 240,
(12,1) --> 68,
(12,2) --> 440,
(12,3) --> 575,
(12,4) --> 27,
(12,5) --> 320,
(12,6) --> 91,
(12,7) --> 48,
(12,8) --> 67,
(12,9) --> 430,
(12,10) --> 300,
(12,11) --> 90,
(12,12) --> 0,
(12,13) --> 545,
(12,14) --> 585,
(12,15) --> 415,
(12,16) --> 205,
(12,17) --> 265,
(12,18) --> 380,
(12,19) --> 170,
(12,20) --> 170,
(12,21) --> 310,
(13,1) --> 610,
(13,2) --> 360,
(13,3) --> 705,
(13,4) --> 520,
(13,5) --> 835,
(13,6) --> 605,
(13,7) --> 590,
(13,8) --> 610,
(13,9) --> 865,
(13,10) --> 250,
(13,11) --> 480,
(13,12) --> 545,
(13,13) --> 0,
(13,14) --> 190,
(13,15) --> 295,
(13,16) --> 715,
(13,17) --> 400,
(13,18) --> 180,
(13,19) --> 485,
(13,20) --> 390,
(13,21) --> 345,
(14,1) --> 655,
(14,2) --> 235,
(14,3) --> 585,
(14,4) --> 555,
(14,5) --> 750,
(14,6) --> 615,
(14,7) --> 625,
(14,8) --> 645,
(14,9) --> 775,
(14,10) --> 285,
(14,11) --> 515,
(14,12) --> 585,
(14,13) --> 190,
(14,14) --> 0,
(14,15) --> 170,
(14,16) --> 650,
(14,17) --> 435,
(14,18) --> 215,
(14,19) --> 525,
(14,20) --> 425,
(14,21) --> 280,
(15,1) --> 480,
(15,2) --> 81,
(15,3) --> 435,
(15,4) --> 380,
(15,5) --> 575,
(15,6) --> 440,
(15,7) --> 455,
(15,8) --> 465,
(15,9) --> 600,
(15,10) --> 245,
(15,11) --> 345,
(15,12) --> 415,
(15,13) --> 295,
(15,14) --> 170,
(15,15) --> 0,
(15,16) --> 475,
(15,17) --> 385,
(15,18) --> 190,
(15,19) --> 405,
(15,20) --> 255,
(15,21) --> 105,
(16,1) --> 265,
(16,2) --> 480,
(16,3) --> 420,
(16,4) --> 235,
(16,5) --> 125,
(16,6) --> 125,
(16,7) --> 200,
(16,8) --> 165,
(16,9) --> 230,
(16,10) --> 475,
(16,11) --> 310,
(16,12) --> 205,
(16,13) --> 715,
(16,14) --> 650,
(16,15) --> 475,
(16,16) --> 0,
(16,17) --> 485,
(16,18) --> 545,
(16,19) --> 375,
(16,20) --> 395,
(16,21) --> 380,
(17,1) --> 255,
(17,2) --> 440,
(17,3) --> 755,
(17,4) --> 235,
(17,5) --> 650,
(17,6) --> 370,
(17,7) --> 320,
(17,8) --> 350,
(17,9) --> 680,
(17,10) --> 150,
(17,11) --> 175,
(17,12) --> 265,
(17,13) --> 400,
(17,14) --> 435,
(17,15) --> 385,
(17,16) --> 485,
(17,17) --> 0,
(17,18) --> 225,
(17,19) --> 87,
(17,20) --> 205,
(17,21) --> 280,
(18,1) --> 450,
(18,2) --> 270,
(18,3) --> 625,
(18,4) --> 345,
(18,5) --> 660,
(18,6) --> 430,
(18,7) --> 420,
(18,8) --> 440,
(18,9) --> 690,
(18,10) --> 77,
(18,11) --> 310,
(18,12) --> 380,
(18,13) --> 180,
(18,14) --> 215,
(18,15) --> 190,
(18,16) --> 545,
(18,17) --> 225,
(18,18) --> 0,
(18,19) --> 315,
(18,20) --> 220,
(18,21) --> 165,
(19,1) --> 170,
(19,2) --> 445,
(19,3) --> 750,
(19,4) --> 160,
(19,5) --> 495,
(19,6) --> 265,
(19,7) --> 220,
(19,8) --> 240,
(19,9) --> 600,
(19,10) --> 235,
(19,11) --> 125,
(19,12) --> 170,
(19,13) --> 485,
(19,14) --> 525,
(19,15) --> 405,
(19,16) --> 375,
(19,17) --> 87,
(19,18) --> 315,
(19,19) --> 0,
(19,20) --> 155,
(19,21) --> 305,
(20,1) --> 240,
(20,2) --> 290,
(20,3) --> 590,
(20,4) --> 140,
(20,5) --> 480,
(20,6) --> 255,
(20,7) --> 205,
(20,8) --> 220,
(20,9) --> 515,
(20,10) --> 150,
(20,11) --> 100,
(20,12) --> 170,
(20,13) --> 390,
(20,14) --> 425,
(20,15) --> 255,
(20,16) --> 395,
(20,17) --> 205,
(20,18) --> 220,
(20,19) --> 155,
(20,20) --> 0,
(20,21) --> 150,
(21,1) --> 380,
(21,2) --> 140,
(21,3) --> 495,
(21,4) --> 280,
(21,5) --> 480,
(21,6) --> 340,
(21,7) --> 350,
(21,8) --> 370,
(21,9) --> 505,
(21,10) --> 185,
(21,11) --> 240,
(21,12) --> 310,
(21,13) --> 345,
(21,14) --> 280,
(21,15) --> 105,
(21,16) --> 380,
(21,17) --> 280,
(21,18) --> 165,
(21,19) --> 305,
(21,20) --> 150,
(21,21) --> 0)
